
Gurobi 10.0.1 (win64) logging started Sat Sep 16 16:57:07 2023

Set parameter LogFile to value "./results-heuristic-start//log/Fattahi_setup_03_modified_old_deadline.log"
Gurobi Optimizer version 10.0.1 build v10.0.1rc0 (win64)

CPU model: AMD Ryzen 7 3700X 8-Core Processor, instruction set [SSE2|AVX|AVX2]
Thread count: 8 physical cores, 16 logical processors, using up to 16 threads

Optimize a model with 92 rows, 62 columns and 335 nonzeros
Model fingerprint: 0xffef39ee
Model has 1 quadratic constraint
Variable types: 10 continuous, 52 integer (51 binary)
Coefficient statistics:
  Matrix range     [1e+00, 1e+06]
  QMatrix range    [1e+00, 1e+00]
  QLMatrix range   [1e+00, 4e+02]
  Objective range  [1e+00, 1e+00]
  Bounds range     [1e+00, 1e+00]
  RHS range        [1e+00, 3e+06]

User MIP start did not produce a new incumbent solution
User MIP start violates constraint initial_start_time_job0_stage0_machine0_constraint by 420.000000000

Presolve removed 23 rows and 28 columns
Presolve time: 0.00s
Presolved: 75 rows, 38 columns, 295 nonzeros
Variable types: 14 continuous, 24 integer (23 binary)
Found heuristic solution: objective 2090.0000000
Found heuristic solution: objective 1718.0000000

Root relaxation: objective 0.000000e+00, 18 iterations, 0.00 seconds (0.00 work units)

    Nodes    |    Current Node    |     Objective Bounds      |     Work
 Expl Unexpl |  Obj  Depth IntInf | Incumbent    BestBd   Gap | It/Node Time

     0     0    0.00000    0    6 1718.00000    0.00000   100%     -    0s
Another try with MIP start
H    0     0                    1579.0000000    0.00000   100%     -    0s
     0     0    0.00000    0    6 1579.00000    0.00000   100%     -    0s
H    0     0                    1551.0000000    0.00000   100%     -    0s
H    0     0                    1276.0000000    0.00000   100%     -    0s
     0     0    0.00000    0    9 1276.00000    0.00000   100%     -    0s
H    0     0                    1180.0000000    0.00000   100%     -    0s
     0     0  460.00000    0    7 1180.00000  460.00000  61.0%     -    0s
     0     0  592.00000    0    8 1180.00000  592.00000  49.8%     -    0s
     0     0  877.00000    0   12 1180.00000  877.00000  25.7%     -    0s
     0     0  886.00000    0   12 1180.00000  886.00000  24.9%     -    0s
     0     0  886.00575    0   10 1180.00000  886.00575  24.9%     -    0s
     0     0  896.00000    0    7 1180.00000  896.00000  24.1%     -    0s
     0     0  904.00000    0    6 1180.00000  904.00000  23.4%     -    0s
     0     0  904.00000    0    6 1180.00000  904.00000  23.4%     -    0s
     0     2  904.00000    0    6 1180.00000  904.00000  23.4%     -    0s

Cutting planes:
  Learned: 10
  Cover: 2
  Implied bound: 2
  MIR: 2
  Flow cover: 7
  RLT: 4

Explored 58 nodes (416 simplex iterations) in 0.03 seconds (0.01 work units)
Thread count was 16 (of 16 available processors)

Solution count 6: 1180 1276 1551 ... 2090

Optimal solution found (tolerance 1.00e-04)
Best objective 1.180000000000e+03, best bound 1.180000000000e+03, gap 0.0000%
Warning: constraint name "precedence between 0,1 to 0,0 if x_[j,l,h,z,i]=1" has a space
Warning: constraint name "precedence between 0,1 to 0,0 if x_[j,l,h,z,i]=1" has a space
Warning: default constraint names used to write mps file
